c turning on binary mode checking
c parsing input formula with 259840 variables and 1039924 clauses
c finished parsing, read 2900156 bytes from proof file
c detected empty clause; start verification via backward checking
c 1845 of 1039924 clauses in core                            
c 569 of 117066 lemmas in core using 11406 resolution steps
c 0 RAT lemmas in core; 55 redundant literals in core lemmas
s VERIFIED
c verification time: 1.065 seconds
